Mack/Bortfeldt(2008)
Bin-Packing-Problem
BP-RG/SBSBPP/SSSCSP
Testcase-ID	7
Problem-ID	23
no_item_types	8
no_items	1219
CONTAINER_DATA (l,w,h)	587	233	1
ITEMS_DATA:
Type	x	y	z	no_items
1	51	39	1	148
2	53	28	1	154
3	50	28	1	139
4	56	18	1	160
5	45	20	1	159
6	50	13	1	152
7	48	13	1	148
8	25	21	1	159
